c User generated cnf file
p cnf 10 21
-4 5 7 0 
-6 1 1 0 
-7 4 3 0 
5 1 -8 0 
-6 8 3 0 
9 -6 3 0 
-1 9 6 0 
2 -5 2 0 
-7 7 4 0 
5 7 -8 0 
1 7 -7 0 
5 -6 7 0 
10 -1 4 0 
-2 5 5 0 
6 -2 6 0 
2 9 -4 0 
-7 9 2 0 
2 -10 4 0 
2 -10 10 0 
1 10 -8 0 
-5 8 7 0 
